(set-info :smt-lib-version 2.6)
(set-logic QF_SLIA)
(set-info :source |
Generated by: Wei-Cheng Wu
Generated on: 2019-07-28
Generator: Py-Conbyte
Application: Concolic execution of Python code
Target solver: CVC4, Z3, Z3str3, Z3-Trau
|)
(set-info :license "https://creativecommons.org/licenses/by/4.0/")
(set-info :category "industrial")
(set-info :status unknown)
(declare-fun data () String)


(assert (not ( >= ( str.indexof data "," 0  ) 0  )))

(assert (not ( or ( or ( or ( or ( or ( or ( = "mon" "\u{00}"  ) ( = "tue" "\u{00}"  )  ) ( = "wed" "\u{00}"  )  ) ( = "thu" "\u{00}"  )  ) ( = "fri" "\u{00}"  )  ) ( = "sat" "\u{00}"  )  ) ( = "sun" "\u{00}"  )  )))

(assert (not ( str.suffixof "," data  )))

(assert (not ( = ( str.len data  ) 0  )))
(assert ( = 1 3  ))


(check-sat)

(exit)
